lp_solve/lp_examples/ex1.out
Value of objective function:                3
x1                       1
x2                       2
These are the duals from the node that gave the optimal solution.
C1                       0
r_000002                 0
